65
40
68
39
74
98
17
42
51
79
6
19
59
95
96
62
89
1
18
99
3
76
46
22
63
66
12
52
50
54
13
82
43
44
31
47
92
20
91
86
25
64
38
24
61
87
57
8
32
7
88
84
56
23
75
29
36
14
94
73
45
81
83
48
28
90
33
69
58
80
49
78
72
60
53
4
70
93
30
71
55
16
41
5
35
34
97
26
27
67
85
9
0
37
2
21
10
15
77
11
